c Random generated cnf formula, satisfiable: false
p cnf 10 50
-2 9 -3 0
4 7 10 0
-5 1 -7 0
4 1 10 0
-7 -4 -8 0
1 7 6 0
-5 3 8 0
-8 2 4 0
-4 -1 7 0
-5 -2 -1 0
4 -8 1 0
8 5 -10 0
10 4 2 0
9 10 7 0
9 -5 1 0
-10 3 -7 0
-1 7 9 0
-3 -2 4 0
-9 5 6 0
9 -4 10 0
3 -5 -7 0
-3 1 -8 0
-4 1 9 0
-9 10 -6 0
-2 -4 10 0
6 -3 9 0
-6 -7 -3 0
7 9 -8 0
10 -5 1 0
-6 10 9 0
-6 4 7 0
-10 8 -9 0
7 8 -1 0
1 9 -6 0
-10 -3 2 0
-6 -5 3 0
9 7 10 0
9 3 -10 0
-10 -2 3 0
-4 -2 -5 0
6 -7 -1 0
-4 -8 1 0
9 -2 -5 0
-5 1 -8 0
8 -9 -1 0
-7 4 3 0
9 2 5 0
3 -9 -10 0
8 -6 -1 0
-1 9 10 0
